&control
   calculation = 'relax',
   prefix = 'di',
   verbosity = 'high'
   pseudo_dir="~/Pseudopotential/pseudo-ONCV-proj/"pseudo_dir="~/Pseudopotential/pseudo-ONCV-proj/"
   wf_collect = .true.,
   etot_conv_thr = 1.0D-5,
   forc_conv_thr = 1.0D-4,
/
&system
   ibrav = 0 ,
   nat =  63,
   ntyp = 2,
   ecutwfc = 100,
   tot_charge = -1
   nspin = 2,
!   occupations = "smearing",
!   smearing = "mv",
!   degauss = 1d-3,
   starting_magnetization(2) = 1, 
   occupations = 'from_input',
   nbnd = 152,
   tot_magnetization=2,
/
&electrons
   mixing_beta = 0.5
   conv_thr = 1.D-9,
/
&ions
/
CELL_PARAMETERS (angstrom)
    7.1365880966         0.0000000000         0.0000000000
    0.0000000000         7.1365880966         0.0000000000
    0.0000000000         0.0000000000         7.1365880966
ATOMIC_SPECIES
 C  12.0111  C_ONCV_PBE-1.0.upf
 N  14.0067  N_ONCV_PBE-1.0.upf
ATOMIC_POSITIONS (crystal)
C        0.000147088  -0.000147088  -0.000147088
C        0.749640780   0.250359253  -0.000893447
C        0.500083374   0.499916626  -0.000507236
C        0.250449302   0.749550665  -0.000885221
C        0.000893447   0.250359253   0.250359286
C        0.748509465   0.496441177   0.251490601
C        0.497809087   0.748732023   0.250899304
C        0.250855114   0.000859606   0.250057541
C        0.000507236   0.499916626   0.499916693
C        0.749100729   0.748732023   0.502190980
C        0.500083374  -0.000507236   0.499916626
C        0.251267977   0.250899287   0.502190980
C        0.000885221   0.749550665   0.749550665
C        0.749942492   0.000859606   0.749144853
C        0.497809087   0.250899271   0.748732089
C        0.251321916   0.498266982   0.748678117
C        0.749640780  -0.000893447   0.250359286
C        0.503558823   0.251490601   0.251490568
C        0.251267944   0.502190913   0.250899337
C       -0.000859606   0.749144853   0.250057574
C        0.748509465   0.251490551   0.496441244
C        0.251321916   0.748678051   0.498267082
C       -0.000558875   0.000558875   0.500200448
C        0.749100729   0.502190913   0.748732023
C        0.501733052   0.748678051   0.748678051
C        0.250449335  -0.000885221   0.749550731
C       -0.000859606   0.250057541   0.749144853
C        0.749942492   0.749144853   0.000859606
C        0.499799552   0.000558875   0.000558875
C        0.250855114   0.250057541   0.000859606
C       -0.000558875   0.500200448   0.000558875
C        0.125602433   0.125296575   0.125296592
C        0.875381896   0.374749453   0.124618154
C        0.623583854   0.623491502   0.126502785
C        0.375707736   0.876233635   0.123486639
C        0.126449588   0.375697246   0.375697280
C        0.873497215   0.623491502   0.376416213
C        0.624302754   0.873550395   0.375697280
C        0.376508532   0.126502760   0.376416146
C        0.126341860   0.624239142   0.624239209
C        0.876513428   0.876233635   0.624292298
C        0.623583854   0.126502785   0.623491502
C        0.363354807   0.361707052   0.636645227
C        0.125501361   0.874498672   0.874498672
C        0.874703475   0.125296542   0.874397617
C        0.624302754   0.375697246   0.873550462
C        0.375760825   0.624239209   0.873658190
C        0.875381896   0.124618112   0.374749520
C        0.363354807   0.636645227   0.361707086
C        0.123692452   0.876307531   0.375601705
C        0.873497282   0.376416146   0.623491502
C        0.638292948   0.636645160   0.636645227
C        0.375760825   0.873658056   0.624239209
C        0.123766348   0.123486622   0.624292365
C        0.876513428   0.624292231   0.876233702
C        0.624398329   0.876307598   0.876307598
C        0.375707736   0.123486622   0.876233635
C        0.123692469   0.375601671   0.876307598
C        0.874703475   0.874397550   0.125296575
C        0.625250547   0.124618154   0.124618171
C        0.376508532   0.376416146   0.126502785
C        0.123766331   0.624292298   0.123486639
N        0.631969278   0.368030722   0.368030722
K_POINTS (automatic)
 2 2 2 0 0 0 
OCCUPATIONS
     1.0000   1.0000   1.0000   1.0000   1.0000   1.0000   1.0000   1.0000
     1.0000   1.0000   1.0000   1.0000   1.0000   1.0000   1.0000   1.0000
     1.0000   1.0000   1.0000   1.0000   1.0000   1.0000   1.0000   1.0000
     1.0000   1.0000   1.0000   1.0000   1.0000   1.0000   1.0000   1.0000
     1.0000   1.0000   1.0000   1.0000   1.0000   1.0000   1.0000   1.0000
     1.0000   1.0000   1.0000   1.0000   1.0000   1.0000   1.0000   1.0000
     1.0000   1.0000   1.0000   1.0000   1.0000   1.0000   1.0000   1.0000
     1.0000   1.0000   1.0000   1.0000   1.0000   1.0000   1.0000   1.0000
     1.0000   1.0000   1.0000   1.0000   1.0000   1.0000   1.0000   1.0000
     1.0000   1.0000   1.0000   1.0000   1.0000   1.0000   1.0000   1.0000
     1.0000   1.0000   1.0000   1.0000   1.0000   1.0000   1.0000   1.0000
     1.0000   1.0000   1.0000   1.0000   1.0000   1.0000   1.0000   1.0000
     1.0000   1.0000   1.0000   1.0000   1.0000   1.0000   1.0000   1.0000
     1.0000   1.0000   1.0000   1.0000   1.0000   1.0000   1.0000   1.0000
     1.0000   1.0000   1.0000   1.0000   1.0000   1.0000   1.0000   1.0000
     1.0000   1.0000   1.0000   1.0000   1.0000   1.0000   1.0000   1.0000
     0.0000   0.0000   0.0000   0.0000   0.0000   0.0000   0.0000   0.0000
     0.0000   0.0000   0.0000   0.0000   0.0000   0.0000   0.0000   0.0000
     0.0000   0.0000   0.0000   0.0000   0.0000   0.0000   0.0000   0.0000
     1.0000   1.0000   1.0000   1.0000   1.0000   1.0000   1.0000   1.0000
     1.0000   1.0000   1.0000   1.0000   1.0000   1.0000   1.0000   1.0000
     1.0000   1.0000   1.0000   1.0000   1.0000   1.0000   1.0000   1.0000
     1.0000   1.0000   1.0000   1.0000   1.0000   1.0000   1.0000   1.0000
     1.0000   1.0000   1.0000   1.0000   1.0000   1.0000   1.0000   1.0000
     1.0000   1.0000   1.0000   1.0000   1.0000   1.0000   1.0000   1.0000
     1.0000   1.0000   1.0000   1.0000   1.0000   1.0000   1.0000   1.0000
     1.0000   1.0000   1.0000   1.0000   1.0000   1.0000   1.0000   1.0000
     1.0000   1.0000   1.0000   1.0000   1.0000   1.0000   1.0000   1.0000
     1.0000   1.0000   1.0000   1.0000   1.0000   1.0000   1.0000   1.0000
     1.0000   1.0000   1.0000   1.0000   1.0000   1.0000   1.0000   1.0000
     1.0000   1.0000   1.0000   1.0000   1.0000   1.0000   1.0000   1.0000
     1.0000   1.0000   1.0000   1.0000   1.0000   1.0000   1.0000   1.0000
     1.0000   1.0000   1.0000   1.0000   1.0000   1.0000   1.0000   1.0000
     1.0000   1.0000   1.0000   1.0000   1.0000   1.0000   1.0000   1.0000
     1.0000   1.0000   1.0000   1.0000   1.0000   0.0000   1.0000   0.0000
     0.0000   0.0000   0.0000   0.0000   0.0000   0.0000   0.0000   0.0000
     0.0000   0.0000   0.0000   0.0000   0.0000   0.0000   0.0000   0.0000
     0.0000   0.0000   0.0000   0.0000   0.0000   0.0000   0.0000   0.0000
