Generated from the PW2PY python module  
   1.00000000000000     
     7.1365881140000003    0.0000000000000000    0.0000000000000000
     0.0000000000000000    7.1365881140000003    0.0000000000000000
     0.0000000000000000    0.0000000000000000    7.1365881140000003
   C    N 
    62     1
Direct
  0.0001978106638954  0.9998021893361045  0.9998021893361045
  0.6236554924141638  0.6236056789860185  0.1264742228118252
  0.3757023765204018  0.8761379899265125  0.1235720439406764
  0.1263653930071466  0.3756750907856670  0.3756751247856698
  0.8735257771881748  0.6236056789860185  0.3763445745858382
  0.6243249092143329  0.8736345899928557  0.3756751247856698
  0.3763943550139844  0.1264741978118267  0.3763445075858362
  0.1263236872657699  0.6242486643209778  0.6242487313209798
  0.8764280230593257  0.8761379899265125  0.6242976574796011
  0.6236554924141638  0.1264742228118252  0.6236056789860185
  0.3637944498360187  0.3620204832843811  0.6362055841639842
  0.1255206472305537  0.8744793857694454  0.8744793857694454
  0.8747718140871757  0.1252282029128223  0.8745133960082407
  0.6243249092143329  0.3756750907856670  0.8736346569928506
  0.8752771052013971  0.3748054938714697  0.1247229447986070
  0.3757513026790228  0.6242487313209798  0.8736763627342272
  0.3637944498360187  0.6362055841639842  0.3620205182843805
  0.1238174114140956  0.8761825715859065  0.3756027534635558
  0.8735258441881768  0.3763445075858362  0.6236056789860185
  0.6379795157156223  0.6362055171639822  0.6362055841639842
  0.3757513026790228  0.8736762287342303  0.6242487313209798
  0.1238619930734897  0.1235720269406715  0.6242977244796031
  0.8764280230593257  0.6242975904795991  0.8761380569265074
  0.6243972805364471  0.8761826385859085  0.8761826385859085
  0.3757023765204018  0.1235720269406715  0.8761379899265125
  0.1238174284140934  0.3756027194635530  0.8761826385859085
  0.8747718140871757  0.8745133290082387  0.1252282359128215
  0.6251945061285303  0.1247229447986070  0.1247229627986084
  0.3763943550139844  0.3763445075858362  0.1264742228118252
  0.8752771052013971  0.1247229037986071  0.3748055608714645
  0.1238619760734919  0.6242976574796011  0.1235720439406764
  0.1254866539917635  0.1252282359128215  0.1252282529128264
  0.2507878495613893  0.2500490757572247  0.0007365427679510
  0.7496352502989712  0.2503647827010279  0.9992316687892993
  0.5000761760744047  0.4999238239255953  0.9995403998938108
  0.2504778953397430  0.7495220716602580  0.9992101662012766
  0.0007683312107007  0.2503647827010279  0.2503648157010271
  0.7484104462182392  0.4966138758649772  0.2515896197817592
  0.4979100094241586  0.7487433683669373  0.2509208296676261
  0.2507878495613893  0.0007365427679510  0.2500490757572247
  0.0004596001061891  0.4999238239255953  0.4999238909255972
  0.7490792033323731  0.7487433683669373  0.5020900575758434
  0.5000761760744047  0.9995403998938108  0.4999238239255953
  0.2512566316330627  0.2509208126676282  0.5020900575758434
  0.0007898337987233  0.7495220716602580  0.7495220716602580
  0.7499509572427816  0.0007365427679510  0.7492121174386116
  0.9995155866578284  0.5002501030429828  0.0004844133421716
  0.4979100094241586  0.2509207966676269  0.7487434343669357
  0.7496352502989712  0.9992316687892993  0.2503648157010271
  0.5033861241350228  0.2515896197817592  0.2515895867817600
  0.2512565986330635  0.5020899905758414  0.2509208626676324
  0.9992634572320490  0.7492121174386116  0.2500491087572239
  0.7484104462182392  0.2515895697817551  0.4966139428649792
  0.2514915697751368  0.7485083972248640  0.4983479850313158
  0.9995155866578284  0.0004844133421716  0.5002501030429828
  0.7490792033323731  0.5020899905758414  0.7487433683669373
  0.5016521489686883  0.7485083972248640  0.7485083972248640
  0.2504779283397422  0.9992101662012766  0.7495221376602563
  0.9992634572320490  0.2500490757572247  0.7492121174386116
  0.7499509572427816  0.7492121174386116  0.0007365427679510
  0.4997498969570172  0.0004844133421716  0.0004844133421716
  0.2514915697751368  0.4983478850313146  0.7485084632248623
  0.6314094053005010  0.3685905946994989  0.3685905946994989
 
  0.00000000E+00  0.00000000E+00  0.00000000E+00
  0.00000000E+00  0.00000000E+00  0.00000000E+00
  0.00000000E+00  0.00000000E+00  0.00000000E+00
  0.00000000E+00  0.00000000E+00  0.00000000E+00
  0.00000000E+00  0.00000000E+00  0.00000000E+00
  0.00000000E+00  0.00000000E+00  0.00000000E+00
  0.00000000E+00  0.00000000E+00  0.00000000E+00
  0.00000000E+00  0.00000000E+00  0.00000000E+00
  0.00000000E+00  0.00000000E+00  0.00000000E+00
  0.00000000E+00  0.00000000E+00  0.00000000E+00
  0.00000000E+00  0.00000000E+00  0.00000000E+00
  0.00000000E+00  0.00000000E+00  0.00000000E+00
  0.00000000E+00  0.00000000E+00  0.00000000E+00
  0.00000000E+00  0.00000000E+00  0.00000000E+00
  0.00000000E+00  0.00000000E+00  0.00000000E+00
  0.00000000E+00  0.00000000E+00  0.00000000E+00
  0.00000000E+00  0.00000000E+00  0.00000000E+00
  0.00000000E+00  0.00000000E+00  0.00000000E+00
  0.00000000E+00  0.00000000E+00  0.00000000E+00
  0.00000000E+00  0.00000000E+00  0.00000000E+00
  0.00000000E+00  0.00000000E+00  0.00000000E+00
  0.00000000E+00  0.00000000E+00  0.00000000E+00
  0.00000000E+00  0.00000000E+00  0.00000000E+00
  0.00000000E+00  0.00000000E+00  0.00000000E+00
  0.00000000E+00  0.00000000E+00  0.00000000E+00
  0.00000000E+00  0.00000000E+00  0.00000000E+00
  0.00000000E+00  0.00000000E+00  0.00000000E+00
  0.00000000E+00  0.00000000E+00  0.00000000E+00
  0.00000000E+00  0.00000000E+00  0.00000000E+00
  0.00000000E+00  0.00000000E+00  0.00000000E+00
  0.00000000E+00  0.00000000E+00  0.00000000E+00
  0.00000000E+00  0.00000000E+00  0.00000000E+00
  0.00000000E+00  0.00000000E+00  0.00000000E+00
  0.00000000E+00  0.00000000E+00  0.00000000E+00
  0.00000000E+00  0.00000000E+00  0.00000000E+00
  0.00000000E+00  0.00000000E+00  0.00000000E+00
  0.00000000E+00  0.00000000E+00  0.00000000E+00
  0.00000000E+00  0.00000000E+00  0.00000000E+00
  0.00000000E+00  0.00000000E+00  0.00000000E+00
  0.00000000E+00  0.00000000E+00  0.00000000E+00
  0.00000000E+00  0.00000000E+00  0.00000000E+00
  0.00000000E+00  0.00000000E+00  0.00000000E+00
  0.00000000E+00  0.00000000E+00  0.00000000E+00
  0.00000000E+00  0.00000000E+00  0.00000000E+00
  0.00000000E+00  0.00000000E+00  0.00000000E+00
  0.00000000E+00  0.00000000E+00  0.00000000E+00
  0.00000000E+00  0.00000000E+00  0.00000000E+00
  0.00000000E+00  0.00000000E+00  0.00000000E+00
  0.00000000E+00  0.00000000E+00  0.00000000E+00
  0.00000000E+00  0.00000000E+00  0.00000000E+00
  0.00000000E+00  0.00000000E+00  0.00000000E+00
  0.00000000E+00  0.00000000E+00  0.00000000E+00
  0.00000000E+00  0.00000000E+00  0.00000000E+00
  0.00000000E+00  0.00000000E+00  0.00000000E+00
  0.00000000E+00  0.00000000E+00  0.00000000E+00
  0.00000000E+00  0.00000000E+00  0.00000000E+00
  0.00000000E+00  0.00000000E+00  0.00000000E+00
  0.00000000E+00  0.00000000E+00  0.00000000E+00
  0.00000000E+00  0.00000000E+00  0.00000000E+00
  0.00000000E+00  0.00000000E+00  0.00000000E+00
  0.00000000E+00  0.00000000E+00  0.00000000E+00
  0.00000000E+00  0.00000000E+00  0.00000000E+00
  0.00000000E+00  0.00000000E+00  0.00000000E+00
