&control
   calculation = 'relax',
   prefix = 'di',
   verbosity = 'high'
   pseudo_dir="~/Pseudopotential/pseudo-ONCV-proj/"pseudo_dir="~/Pseudopotential/pseudo-ONCV-proj/"
   wf_collect = .true.,
   etot_conv_thr = 1.0D-5,
   forc_conv_thr = 1.0D-4,
/
&system
   ibrav = 0 ,
   nat =  63,
   ntyp = 2,
   ecutwfc = 100,
   tot_charge = -1
   nspin = 2,
   occupations = "smearing",
   smearing = "mv",
   degauss = 1d-3,
   starting_magnetization(2) = 1, 
/
&electrons
   mixing_beta = 0.5
   conv_thr = 1.D-9,
/
&ions
/
CELL_PARAMETERS (angstrom)
    7.1365880966         0.0000000000         0.0000000000
    0.0000000000         7.1365880966         0.0000000000
    0.0000000000         0.0000000000         7.1365880966
ATOMIC_SPECIES
 C  12.0111  C_ONCV_PBE-1.0.upf
 N  14.0067  N_ONCV_PBE-1.0.upf
ATOMIC_POSITIONS (crystal)
C        0.000136184  -0.000136184  -0.000136184
C        0.749967578   0.250032455  -0.001299951
C        0.499865113   0.500134887   0.000112183
C        0.250160653   0.749839314   0.000158337
C        0.001299951   0.250032455   0.250032488
C        0.749612353   0.494377017   0.250387713
C        0.498490946   0.748100024   0.252699746
C        0.251072055   0.000967799   0.250404350
C       -0.000112183   0.500134887   0.500134954
C        0.747300287   0.748100024   0.501509121
C        0.499865113   0.000112183   0.500134887
C        0.251899976   0.252699729   0.501509121
C       -0.000158337   0.749839314   0.749839314
C        0.749595683   0.000967799   0.748927912
C        0.498490946   0.252699713   0.748100090
C        0.250421530   0.499238952   0.749578503
C        0.749967578  -0.001299951   0.250032488
C        0.505622983   0.250387713   0.250387680
C        0.251899943   0.501509054   0.252699779
C       -0.000967799   0.748927912   0.250404383
C        0.749612353   0.250387663   0.494377084
C        0.250421530   0.749578437   0.499239052
C       -0.000038614   0.000038614   0.499967238
C        0.747300287   0.501509054   0.748100024
C        0.500761082   0.749578437   0.749578437
C        0.250160686   0.000158337   0.749839380
C       -0.000967799   0.250404350   0.748927912
C        0.749595683   0.748927912   0.000967799
C        0.500032762   0.000038614   0.000038614
C        0.251072055   0.250404350   0.000967799
C       -0.000038614   0.499967238   0.000038614
C        0.125916403   0.125251596   0.125251613
C        0.876446496   0.374750766   0.123553554
C        0.623712079   0.622876877   0.127208667
C        0.375671226   0.875645024   0.124739161
C        0.126111038   0.375579954   0.375579988
C        0.872791333   0.622876877   0.376287988
C        0.624420046   0.873888945   0.375579988
C        0.377123157   0.127208642   0.376287921
C        0.125194866   0.624990522   0.624990589
C        0.875260906   0.875645024   0.624328808
C        0.623712079   0.127208667   0.622876877
C        0.366190718   0.369687244   0.633809316
C        0.125155907   0.874844126   0.874844126
C        0.874748454   0.125251563   0.874083647
C        0.624420046   0.375579954   0.873889012
C        0.375009445   0.624990589   0.874805184
C        0.876446496   0.123553512   0.374750833
C        0.366190718   0.633809316   0.369687278
C        0.123983796   0.876016187   0.375992899
C        0.872791400   0.376287921   0.622876877
C        0.630312756   0.633809249   0.633809316
C        0.375009445   0.874805050   0.624990589
C        0.124354959   0.124739144   0.624328875
C        0.875260906   0.624328741   0.875645091
C        0.624007135   0.876016254   0.876016254
C        0.375671226   0.124739144   0.875645024
C        0.123983813   0.375992865   0.876016254
C        0.874748454   0.874083580   0.125251596
C        0.625249234   0.123553554   0.123553571
C        0.377123157   0.376287921   0.127208667
C        0.124354942   0.624328808   0.124739161
N        0.636286383   0.363713617   0.363713617
K_POINTS (automatic)
 2 2 2 0 0 0 
