Generated from the PW2PY python module  
   1.00000000000000     
     7.1365880969999997    0.0000000000000000    0.0000000000000000
     0.0000000000000000    7.1365880969999997    0.0000000000000000
     0.0000000000000000    0.0000000000000000    7.1365880969999997
   C    N 
    62     1
Direct
  0.0001364667852215  0.9998635332147785  0.9998635332147785
  0.6237655064083256  0.6228501400616011  0.1272284129037828
  0.3756757867385900  0.8755422026238051  0.1248575986474094
  0.1260800920166076  0.3755256710890578  0.3755257050890535
  0.8727715870962172  0.6228501400616011  0.3762345605916764
  0.6244743289109422  0.8739198909833874  0.3755257050890535
  0.3771498939384017  0.1272283879037843  0.3762344935916744
  0.1250958213214588  0.6250861442946345  0.6250862112946365
  0.8751424683525926  0.8755422026238051  0.6243242472614128
  0.6237655064083256  0.1272284129037828  0.6228501400616011
  0.3665025882416657  0.3701510195543634  0.6334974457583300
  0.1250685584880884  0.8749314745119108  0.8749314745119108
  0.8748308605463109  0.1251691564536870  0.8740820556281008
  0.6244743289109422  0.3755256710890578  0.8739199579833894
  0.8764452571408086  0.3746695194749918  0.1235547928591885
  0.3749138227053663  0.6250862112946365  0.8749042286785453
  0.3665025882416657  0.6334974457583300  0.3701510535543662
  0.1240799351669963  0.8759200478329987  0.3760121901332383
  0.8727716540962120  0.3762344935916744  0.6228501400616011
  0.6298489804456366  0.6334973787583351  0.6334974457583300
  0.3749138227053663  0.8749040946785414  0.6250862112946365
  0.1244577803761970  0.1248575816474116  0.6243243142614148
  0.8751424683525926  0.6243241802614108  0.8755422696238071
  0.6239878438667645  0.8759201148330007  0.8759201148330007
  0.3756757867385900  0.1248575816474116  0.8755422026238051
  0.1240799521670013  0.3760121561332355  0.8759201148330007
  0.8748308605463109  0.8740819886280988  0.1251691894536862
  0.6253304805250082  0.1235547928591885  0.1235548098592005
  0.3771498939384017  0.3762344935916744  0.1272284129037828
  0.8764452571408086  0.1235547508591992  0.3746695864749938
  0.1244577633761921  0.6243242472614128  0.1248575986474094
  0.1259179943718962  0.1251691894536862  0.1251692064536911
  0.2510802425912857  0.2504168858918021  0.0008909564107284
  0.7500393295933492  0.2499607034066571  0.9987213116110141
  0.4998638558434436  0.5001361441565564  0.0001274241055640
  0.2501034309543755  0.7498965360456253  0.0002875633302111
  0.0012786883889859  0.2499607034066571  0.2499607364066563
  0.7496086116165728  0.4943101675095178  0.2503914543834327
  0.4985699469713509  0.7479919813092479  0.2528326746116178
  0.2510802425912857  0.0008909564107284  0.2504168858918021
  0.9998725758944360  0.5001361441565564  0.5001362111565584
  0.7471673583883813  0.7479919813092479  0.5014301200286440
  0.4998638558434436  0.0001274241055640  0.5001361441565564
  0.2520080186907521  0.2528326576116200  0.5014301200286440
  0.9997124366697889  0.7498965360456253  0.7498965360456253
  0.7495831471081971  0.0008909564107284  0.7489197244087151
  0.9999670566877867  0.4999598547793056  0.0000329433122133
  0.4985699469713509  0.2528326416116187  0.7479920473092463
  0.7500393295933492  0.9987213116110141  0.2499607364066563
  0.5056898324904822  0.2503914543834327  0.2503914213834335
  0.2520079856907529  0.5014300530286491  0.2528327076116170
  0.9991090435892716  0.7489197244087151  0.2504169188918084
  0.7496086116165728  0.2503914043834286  0.4943102345095198
  0.2503889297419377  0.7496110372580560  0.4994594753692354
  0.9999670566877867  0.0000329433122133  0.4999598547793056
  0.7471673583883813  0.5014300530286491  0.7479919813092479
  0.5005406586307615  0.7496110372580560  0.7496110372580560
  0.2501034639543747  0.0002875633302111  0.7498966020456237
  0.9991090435892716  0.2504168858918021  0.7489197244087151
  0.7495831471081971  0.7489197244087151  0.0008909564107284
  0.5000401452206944  0.0000329433122133  0.0000329433122133
  0.2503889297419377  0.4994593753692342  0.7496111032580615
  0.6360027660859657  0.3639972339140343  0.3639972339140343
 
  0.00000000E+00  0.00000000E+00  0.00000000E+00
  0.00000000E+00  0.00000000E+00  0.00000000E+00
  0.00000000E+00  0.00000000E+00  0.00000000E+00
  0.00000000E+00  0.00000000E+00  0.00000000E+00
  0.00000000E+00  0.00000000E+00  0.00000000E+00
  0.00000000E+00  0.00000000E+00  0.00000000E+00
  0.00000000E+00  0.00000000E+00  0.00000000E+00
  0.00000000E+00  0.00000000E+00  0.00000000E+00
  0.00000000E+00  0.00000000E+00  0.00000000E+00
  0.00000000E+00  0.00000000E+00  0.00000000E+00
  0.00000000E+00  0.00000000E+00  0.00000000E+00
  0.00000000E+00  0.00000000E+00  0.00000000E+00
  0.00000000E+00  0.00000000E+00  0.00000000E+00
  0.00000000E+00  0.00000000E+00  0.00000000E+00
  0.00000000E+00  0.00000000E+00  0.00000000E+00
  0.00000000E+00  0.00000000E+00  0.00000000E+00
  0.00000000E+00  0.00000000E+00  0.00000000E+00
  0.00000000E+00  0.00000000E+00  0.00000000E+00
  0.00000000E+00  0.00000000E+00  0.00000000E+00
  0.00000000E+00  0.00000000E+00  0.00000000E+00
  0.00000000E+00  0.00000000E+00  0.00000000E+00
  0.00000000E+00  0.00000000E+00  0.00000000E+00
  0.00000000E+00  0.00000000E+00  0.00000000E+00
  0.00000000E+00  0.00000000E+00  0.00000000E+00
  0.00000000E+00  0.00000000E+00  0.00000000E+00
  0.00000000E+00  0.00000000E+00  0.00000000E+00
  0.00000000E+00  0.00000000E+00  0.00000000E+00
  0.00000000E+00  0.00000000E+00  0.00000000E+00
  0.00000000E+00  0.00000000E+00  0.00000000E+00
  0.00000000E+00  0.00000000E+00  0.00000000E+00
  0.00000000E+00  0.00000000E+00  0.00000000E+00
  0.00000000E+00  0.00000000E+00  0.00000000E+00
  0.00000000E+00  0.00000000E+00  0.00000000E+00
  0.00000000E+00  0.00000000E+00  0.00000000E+00
  0.00000000E+00  0.00000000E+00  0.00000000E+00
  0.00000000E+00  0.00000000E+00  0.00000000E+00
  0.00000000E+00  0.00000000E+00  0.00000000E+00
  0.00000000E+00  0.00000000E+00  0.00000000E+00
  0.00000000E+00  0.00000000E+00  0.00000000E+00
  0.00000000E+00  0.00000000E+00  0.00000000E+00
  0.00000000E+00  0.00000000E+00  0.00000000E+00
  0.00000000E+00  0.00000000E+00  0.00000000E+00
  0.00000000E+00  0.00000000E+00  0.00000000E+00
  0.00000000E+00  0.00000000E+00  0.00000000E+00
  0.00000000E+00  0.00000000E+00  0.00000000E+00
  0.00000000E+00  0.00000000E+00  0.00000000E+00
  0.00000000E+00  0.00000000E+00  0.00000000E+00
  0.00000000E+00  0.00000000E+00  0.00000000E+00
  0.00000000E+00  0.00000000E+00  0.00000000E+00
  0.00000000E+00  0.00000000E+00  0.00000000E+00
  0.00000000E+00  0.00000000E+00  0.00000000E+00
  0.00000000E+00  0.00000000E+00  0.00000000E+00
  0.00000000E+00  0.00000000E+00  0.00000000E+00
  0.00000000E+00  0.00000000E+00  0.00000000E+00
  0.00000000E+00  0.00000000E+00  0.00000000E+00
  0.00000000E+00  0.00000000E+00  0.00000000E+00
  0.00000000E+00  0.00000000E+00  0.00000000E+00
  0.00000000E+00  0.00000000E+00  0.00000000E+00
  0.00000000E+00  0.00000000E+00  0.00000000E+00
  0.00000000E+00  0.00000000E+00  0.00000000E+00
  0.00000000E+00  0.00000000E+00  0.00000000E+00
  0.00000000E+00  0.00000000E+00  0.00000000E+00
  0.00000000E+00  0.00000000E+00  0.00000000E+00
