&control
   calculation = 'relax',
   prefix = 'di',
   verbosity = 'high'
   pseudo_dir="~/Pseudopotential/pseudo-ONCV-proj/"pseudo_dir="~/Pseudopotential/pseudo-ONCV-proj/"
   wf_collect = .true.,
   etot_conv_thr = 1.0D-5,
   forc_conv_thr = 1.0D-4,
/
&system
   ibrav = 0 ,
   nat =  63,
   ntyp = 2,
   ecutwfc = 100,
   tot_charge = -1
   nspin = 2,
   occupations = "smearing",
   smearing = "mv",
   degauss = 1d-3,
   starting_magnetization(2) = 1, 
/
&electrons
   mixing_beta = 0.5
   conv_thr = 1.D-9,
/
&ions
/
CELL_PARAMETERS (angstrom)
    7.1365880966         0.0000000000         0.0000000000
    0.0000000000         7.1365880966         0.0000000000
    0.0000000000         0.0000000000         7.1365880966
ATOMIC_SPECIES
 C  12.0111  C_ONCV_PBE-1.0.upf
 N  14.0067  N_ONCV_PBE-1.0.upf
ATOMIC_POSITIONS (crystal)
C             0.0001360512       -0.0001360512       -0.0001360512
C             0.7500438834        0.2499561496       -0.0012873594
C             0.4998571475        0.5001428525        0.0001417533
C             0.2500966191        0.7499033479        0.0002742500
C             0.0012873594        0.2499561496        0.2499561826
C             0.7496887477        0.4942929305        0.2503113183
C             0.4985216665        0.7480575892        0.2527800735
C             0.2510564130        0.0008957071        0.2503993380
C            -0.0001417533        0.5001428525        0.5001429195
C             0.7472199595        0.7480575892        0.5014784005
C             0.4998571475        0.0001417533        0.5001428525
C             0.2519424108        0.2527800565        0.5014784005
C            -0.0002742500        0.7499033479        0.7499033479
C             0.7496006950        0.0008957071        0.7489435540
C             0.4985216665        0.2527800405        0.7480576552
C             0.2503483253        0.4994082708        0.7496517077
C             0.7500438834       -0.0012873594        0.2499561826
C             0.5057070695        0.2503113183        0.2503112853
C             0.2519423778        0.5014783335        0.2527801065
C            -0.0008957071        0.7489435540        0.2503993710
C             0.7496887477        0.2503112683        0.4942929975
C             0.2503483253        0.7496516417        0.4994083708
C            -0.0000188017        0.0000188017        0.4999572252
C             0.7472199595        0.5014783335        0.7480575892
C             0.5005917632        0.7496516417        0.7496516417
C             0.2500966521        0.0002742500        0.7499034139
C            -0.0008957071        0.2503993380        0.7489435540
C             0.7496006950        0.7489435540        0.0008957071
C             0.5000427748        0.0000188017        0.0000188017
C             0.2510564130        0.2503993380        0.0008957071
C            -0.0000188017        0.4999572252        0.0000188017
C             0.1258932129        0.1251744971        0.1251745141
C             0.8764883318        0.3746825285        0.1235117182
C             0.6237468894        0.6228512238        0.1272210232
C             0.3756594229        0.8755731332        0.1248263253
C             0.1260709150        0.3755365844        0.3755366184
C             0.8727789768        0.6228512238        0.3762531776
C             0.6244634156        0.8739290680        0.3755366184
C             0.3771488102        0.1272209982        0.3762531106
C             0.1250915439        0.6251015168        0.6251015838
C             0.8751737417        0.8755731332        0.6243406111
C             0.6237468894        0.1272210232        0.6228512238
C             0.3662196473        0.3699124306        0.6337803867
C             0.1250674377        0.8749325953        0.8749325953
C             0.8748255529        0.1251744641        0.8741068371
C             0.6244634156        0.3755365844        0.8739291350
C             0.3748984502        0.6251015838        0.8749085061
C             0.8764883318        0.1235116762        0.3746825955
C             0.3662196473        0.6337803867        0.3699124646
C             0.1240496855        0.8759502975        0.3760118321
C             0.8727790438        0.3762531106        0.6228512238
C             0.6300875694        0.6337803197        0.6337803867
C             0.3748984502        0.8749083721        0.6251015838
C             0.1244268498        0.1248263083        0.6243406781
C             0.8751737417        0.6243405441        0.8755732002
C             0.6239882019        0.8759503645        0.8759503645
C             0.3756594229        0.1248263083        0.8755731332
C             0.1240497025        0.3760117981        0.8759503645
C             0.8748255529        0.8741067701        0.1251744971
C             0.6253174715        0.1235117182        0.1235117352
C             0.3771488102        0.3762531106        0.1272210232
C             0.1244268328        0.6243406111        0.1248263253
N             0.6364532832        0.3635467168        0.3635467168


K_POINTS (automatic)
 2 2 2 0 0 0 
