Generated from the PW2PY python module
1.0
         7.136588114       0.000000000       0.000000000
         0.000000000       7.136588114       0.000000000
         0.000000000       0.000000000       7.136588114
     C     N
     62     1
direct
         0.000203125      -0.000203125      -0.000203125
         0.623647909       0.623562024       0.126487550
         0.375698816       0.876181995       0.123554511
         0.126396174       0.375673936       0.375673970
         0.873512450       0.623562024       0.376352158
         0.624326064       0.873603809       0.375673970
         0.376438010       0.126487525       0.376352091
         0.126270088       0.624246575       0.624246642
         0.876445556       0.876181995       0.624301218
         0.623647909       0.126487550       0.623562024
         0.363409222       0.361706368       0.636590812
         0.125518497       0.874481536       0.874481536
         0.874765804       0.125234213       0.874506510
         0.624326064       0.375673936       0.873603876
         0.875343751       0.374813903       0.124656299
         0.375753392       0.624246642       0.873729962
         0.363409222       0.636590812       0.361706403
         0.123775735       0.876224248       0.375614953
         0.873512517       0.376352091       0.623562024
         0.638293631       0.636590745       0.636590812
         0.375753392       0.873729828       0.624246642
         0.123817988       0.123554494       0.624301285
         0.876445556       0.624301151       0.876182062
         0.624385081       0.876224315       0.876224315
         0.375698816       0.123554494       0.876181995
         0.123775752       0.375614919       0.876224315
         0.874765804       0.874506443       0.125234246
         0.625186097       0.124656299       0.124656317
         0.376438010       0.376352091       0.126487550
         0.875343751       0.124656258       0.374813970
         0.123817971       0.624301218       0.123554511
         0.125493540       0.125234246       0.125234263
         0.250771195       0.250045165       0.000770175
         0.749650681       0.250349352      -0.000793953
         0.500085274       0.499914726      -0.000466332
         0.250460079       0.749539888      -0.000790189
         0.000793953       0.250349352       0.250349385
         0.748515942       0.496531673       0.251484124
         0.497865668       0.748728071       0.250910590
         0.250771195       0.000770175       0.250045165
         0.000466332       0.499914726       0.499914793
         0.749089443       0.748728071       0.502134399
         0.500085274      -0.000466332       0.499914726
         0.251271929       0.250910573       0.502134399
         0.000790189       0.749539888       0.749539888
         0.749954868       0.000770175       0.749228772
        -0.000514266       0.500230444       0.000514266
         0.497865668       0.250910557       0.748728137
         0.749650681      -0.000793953       0.250349385
         0.503468327       0.251484124       0.251484091
         0.251271896       0.502134332       0.250910623
        -0.000770175       0.749228772       0.250045198
         0.748515942       0.251484074       0.496531740
         0.251360233       0.748639734       0.498301869
        -0.000514266       0.000514266       0.500230444
         0.749089443       0.502134332       0.748728071
         0.501698265       0.748639734       0.748639734
         0.250460112      -0.000790189       0.749539954
        -0.000770175       0.250045165       0.749228772
         0.749954868       0.749228772       0.000770175
         0.499769556       0.000514266       0.000514266
         0.251360233       0.498301769       0.748639800
         0.631916929       0.368083071       0.368083071
