 &control
    calculation = 'relax',
    restart_mode = 'from_scratch',
    prefix = 'di',
    pseudo_dir = './'
    outdir = 'temp'
    verbosity = 'high'
 /
 &system
    ibrav = 0 ,
    nat =  63,
    ntyp = 2,
    ecutwfc = 70,
    tot_charge = -1

    nspin = 2,
    occupations = "smearing",
    smearing = "mv",
    degauss = 1d-3,
    starting_magnetization(2) = 1, 
 /
 &electrons
    mixing_beta = 0.7
    conv_thr = 1.0d-6
 /
 &ions
 /
 &cell
 /

ATOMIC_SPECIES
 C  12.0111  C_ONCV_PBE-1.0.upf
 N  14.0067  N_ONCV_PBE-1.0.upf
ATOMIC_POSITIONS (crystal)
 C    0.000000000         0.000000000         0.000000000
 C    0.750000033         0.250000000         0.000000000
 C    0.500000000         0.500000000         0.000000000
 C    0.250000000         0.749999967         0.000000000
 C   -0.000000000         0.250000000         0.250000033
 C    0.750000033         0.500000000         0.250000033
 C    0.500000000         0.749999967         0.250000000
 C    0.250000000         0.000000000         0.250000000
 C   -0.000000000         0.500000000         0.500000067
 C    0.750000033         0.749999967         0.500000067
 C    0.500000000         0.000000000         0.500000000
 C    0.250000033         0.249999983         0.500000067
 C    0.000000000         0.749999967         0.749999967
 C    0.750000033         0.000000000         0.749999967
 C    0.500000000         0.249999967         0.750000033
 C    0.250000000         0.499999967         0.750000033
 C    0.750000033        -0.000000000         0.250000033
 C    0.500000000         0.250000033         0.250000000
 C    0.250000000         0.500000000         0.250000033
 C    0.000000000         0.749999967         0.250000033
 C    0.750000033         0.249999983         0.500000067
 C    0.250000000         0.749999967         0.500000067
 C    0.000000000         0.000000000         0.500000000
 C    0.750000033         0.500000000         0.749999967
 C    0.500000067         0.749999967         0.749999967
 C    0.250000033         0.000000000         0.750000033
 C    0.000000000         0.250000000         0.749999967
 C    0.750000033         0.749999967         0.000000000
 C    0.500000000         0.000000000         0.000000000
 C    0.250000000         0.250000000         0.000000000
 C    0.000000000         0.500000000         0.000000000
 C    0.125000000         0.125000000         0.125000017
 C    0.875000050         0.374999983         0.125000000
 C    0.625000017         0.625000017         0.125000017
 C    0.375000017         0.874999983         0.125000017
 C    0.125000000         0.374999983         0.375000017
 C    0.874999983         0.625000017         0.375000050
 C    0.625000017         0.874999983         0.375000017
 C    0.375000017         0.124999992         0.374999983
 C    0.125000000         0.624999950         0.625000017
 C    0.875000050         0.874999983         0.625000017
 C    0.625000017         0.125000017         0.625000017
 C    0.375000017         0.374999983         0.625000017
 C    0.124999983         0.875000050         0.875000050
 C    0.875000050         0.124999967         0.875000050
 C    0.625000017         0.374999983         0.875000050
 C    0.375000017         0.625000017         0.875000050
 C    0.875000050         0.124999958         0.375000050
 C    0.375000017         0.625000017         0.375000017
 C    0.125000000         0.874999983         0.375000017
 C    0.875000050         0.374999983         0.625000017
 C    0.625000017         0.624999950         0.625000017
 C    0.375000017         0.874999916         0.625000017
 C    0.125000000         0.125000000         0.625000084
 C    0.875000050         0.624999950         0.875000050
 C    0.625000017         0.875000050         0.875000050
 C    0.375000017         0.125000000         0.874999983
 C    0.125000017         0.374999983         0.875000050
 C    0.875000050         0.874999983         0.125000000
 C    0.625000017         0.125000000         0.125000017
 C    0.375000017         0.374999983         0.125000017
 C    0.124999983         0.625000017         0.125000017
 N    0.625000017         0.374999983         0.374999983  
K_POINTS (automatic)
    2 2 2 1 1 1
CELL_PARAMETERS (angstrom)
    7.1365880966         0.0000000000         0.0000000000
    0.0000000000         7.1365880966         0.0000000000
    0.0000000000         0.0000000000         7.1365880966
