K-Spacing Value to Generate K-Mesh: 0.000
0
Gamma
   3   3   3
0.0  0.0  0.0
