 &control
    calculation = 'relax',
    restart_mode = 'from_scratch',
    prefix = 'di',
    pseudo_dir = './',
    outdir = 'temp',
    verbosity = 'high',
    etot_conv_thr = 1.0D-5,
    forc_conv_thr = 1.0D-4,
    wf_collect = .true
 /
 &system
    ibrav = 0 ,
    nat =  63,
    ntyp = 2,
    ecutwfc = 70,
    tot_charge = -1,
    nspin = 2,
    occupations = "smearing",
    smearing = "mv",
    degauss = 1d-3,
    starting_magnetization(2) = 1,
    nbnd = 152,
    occupations = 'from_input',
 /
 &electrons
    mixing_beta = 0.7
    conv_thr = 1.0d-8
 /
 &ions
 /
 &cell
 /

ATOMIC_SPECIES
 C  12.0111  C_ONCV_PBE-1.0.upf
 N  14.0067  N_ONCV_PBE-1.0.upf
ATOMIC_POSITIONS (crystal)
C        0.000145040  -0.000145040  -0.000145040
C        0.750064053   0.249935980  -0.001434505
C        0.499852589   0.500147411   0.000144374
C        0.250080060   0.749919907   0.000327891
C        0.001434505   0.249935980   0.249936013
C        0.749687074   0.494239241   0.250312992
C        0.498520086   0.748040876   0.252807065
C        0.251162577   0.000945447   0.250448971
C       -0.000144374   0.500147411   0.500147478
C        0.747192968   0.748040876   0.501479981
C        0.499852589   0.000144374   0.500147411
C        0.251959124   0.252807048   0.501479981
C       -0.000327891   0.749919907   0.749919907
C        0.749551062   0.000945447   0.748837390
C        0.498520086   0.252807032   0.748040942
C        0.250308176   0.499443873   0.749691857
C        0.750064053  -0.001434505   0.249936013
C        0.505760759   0.250312992   0.250312959
C        0.251959091   0.501479914   0.252807098
C       -0.000945447   0.748837390   0.250449004
C        0.749687074   0.250312942   0.494239308
C        0.250308176   0.749691791   0.499443973
C       -0.000028161   0.000028161   0.499928591
C        0.747192968   0.501479914   0.748040876
C        0.500556161   0.749691791   0.749691791
C        0.250080093   0.000327891   0.749919973
C       -0.000945447   0.250448971   0.748837390
C        0.749551062   0.748837390   0.000945447
C        0.500071409   0.000028161   0.000028161
C        0.251162577   0.250448971   0.000945447
C       -0.000028161   0.499928591   0.000028161
C        0.126047257   0.125180988   0.125181005
C        0.876543283   0.374606835   0.123456767
C        0.623734783   0.622805921   0.127243490
C        0.375733400   0.875608281   0.124871222
C        0.126151834   0.375570314   0.375570348
C        0.872756510   0.622805921   0.376265284
C        0.624429686   0.873848149   0.375570348
C        0.377194113   0.127243465   0.376265217
C        0.125037436   0.625134325   0.625134392
C        0.875128845   0.875608281   0.624266634
C        0.623734783   0.127243490   0.622805921
C        0.366253677   0.370051782   0.633746357
C        0.125052355   0.874947678   0.874947678
C        0.874819062   0.125180955   0.873952793
C        0.624429686   0.375570314   0.873848216
C        0.374865642   0.625134392   0.874962614
C        0.876543283   0.123456725   0.374606902
C        0.366253677   0.633746357   0.370051816
C        0.124030223   0.875969760   0.376051989
C        0.872756577   0.376265217   0.622805921
C        0.629948218   0.633746290   0.633746357
C        0.374865642   0.874962480   0.625134392
C        0.124391702   0.124871205   0.624266701
C        0.875128845   0.624266567   0.875608348
C        0.623948045   0.875969827   0.875969827
C        0.375733400   0.124871205   0.875608281
C        0.124030240   0.376051955   0.875969827
C        0.874819062   0.873952726   0.125180988
C        0.625393165   0.123456767   0.123456784
C        0.377194113   0.376265217   0.127243490
C        0.124391685   0.624266634   0.124871222
N        0.636356816   0.363643184   0.363643184
K_POINTS (automatic)
    2 2 2 1 1 1
CELL_PARAMETERS (angstrom)
    7.1365880966         0.0000000000         0.0000000000
    0.0000000000         7.1365880966         0.0000000000
    0.0000000000         0.0000000000         7.1365880966  
OCCUPATIONS
     1.0000   1.0000   1.0000   1.0000   1.0000   1.0000   1.0000   1.0000
     1.0000   1.0000   1.0000   1.0000   1.0000   1.0000   1.0000   1.0000
     1.0000   1.0000   1.0000   1.0000   1.0000   1.0000   1.0000   1.0000
     1.0000   1.0000   1.0000   1.0000   1.0000   1.0000   1.0000   1.0000
     1.0000   1.0000   1.0000   1.0000   1.0000   1.0000   1.0000   1.0000
     1.0000   1.0000   1.0000   1.0000   1.0000   1.0000   1.0000   1.0000
     1.0000   1.0000   1.0000   1.0000   1.0000   1.0000   1.0000   1.0000
     1.0000   1.0000   1.0000   1.0000   1.0000   1.0000   1.0000   1.0000
     1.0000   1.0000   1.0000   1.0000   1.0000   1.0000   1.0000   1.0000
     1.0000   1.0000   1.0000   1.0000   1.0000   1.0000   1.0000   1.0000
     1.0000   1.0000   1.0000   1.0000   1.0000   1.0000   1.0000   1.0000
     1.0000   1.0000   1.0000   1.0000   1.0000   1.0000   1.0000   1.0000
     1.0000   1.0000   1.0000   1.0000   1.0000   1.0000   1.0000   1.0000
     1.0000   1.0000   1.0000   1.0000   1.0000   1.0000   1.0000   1.0000
     1.0000   1.0000   1.0000   1.0000   1.0000   1.0000   1.0000   1.0000
     1.0000   1.0000   1.0000   1.0000   1.0000   1.0000   1.0000   1.0000
     0.0000   0.0000   0.0000   0.0000   0.0000   0.0000   0.0000   0.0000
     0.0000   0.0000   0.0000   0.0000   0.0000   0.0000   0.0000   0.0000
     0.0000   0.0000   0.0000   0.0000   0.0000   0.0000   0.0000   0.0000
     1.0000   1.0000   1.0000   1.0000   1.0000   1.0000   1.0000   1.0000
     1.0000   1.0000   1.0000   1.0000   1.0000   1.0000   1.0000   1.0000
     1.0000   1.0000   1.0000   1.0000   1.0000   1.0000   1.0000   1.0000
     1.0000   1.0000   1.0000   1.0000   1.0000   1.0000   1.0000   1.0000
     1.0000   1.0000   1.0000   1.0000   1.0000   1.0000   1.0000   1.0000
     1.0000   1.0000   1.0000   1.0000   1.0000   1.0000   1.0000   1.0000
     1.0000   1.0000   1.0000   1.0000   1.0000   1.0000   1.0000   1.0000
     1.0000   1.0000   1.0000   1.0000   1.0000   1.0000   1.0000   1.0000
     1.0000   1.0000   1.0000   1.0000   1.0000   1.0000   1.0000   1.0000
     1.0000   1.0000   1.0000   1.0000   1.0000   1.0000   1.0000   1.0000
     1.0000   1.0000   1.0000   1.0000   1.0000   1.0000   1.0000   1.0000
     1.0000   1.0000   1.0000   1.0000   1.0000   1.0000   1.0000   1.0000
     1.0000   1.0000   1.0000   1.0000   1.0000   1.0000   1.0000   1.0000
     1.0000   1.0000   1.0000   1.0000   1.0000   1.0000   1.0000   1.0000
     1.0000   1.0000   1.0000   1.0000   1.0000   1.0000   1.0000   1.0000
     1.0000   1.0000   1.0000   1.0000   1.0000   0.0000   1.0000   0.0000
     0.0000   0.0000   0.0000   0.0000   0.0000   0.0000   0.0000   0.0000
     0.0000   0.0000   0.0000   0.0000   0.0000   0.0000   0.0000   0.0000
     0.0000   0.0000   0.0000   0.0000   0.0000   0.0000   0.0000   0.0000
                                                                                                                              
